p tw 921 1614
1 676
1 677
1 855
1 856
2 455
2 456
3 536
3 537
4 620
4 621
5 913
5 914
6 555
6 556
7 710
7 711
8 593
8 594
8 797
8 798
9 875
9 876
10 396
10 397
10 551
10 552
10 661
10 662
10 830
10 831
11 404
11 405
11 567
11 568
11 668
11 669
11 845
11 846
11 910
11 911
12 692
12 693
12 798
12 799
13 410
13 411
13 447
13 448
14 894
14 895
15 720
15 721
16 594
16 595
16 799
16 800
17 470
17 471
18 595
18 596
19 746
19 747
20 650
20 651
20 814
20 815
21 611
21 612
22 889
22 890
23 438
23 439
24 911
24 912
25 452
25 453
26 702
26 703
27 890
27 891
28 607
28 608
28 822
28 823
29 560
29 561
30 513
30 514
31 460
31 461
31 712
31 713
32 490
32 491
32 619
32 620
33 392
33 393
33 431
33 432
34 591
34 592
35 429
35 430
36 514
36 515
37 765
37 766
38 487
38 488
38 617
38 618
39 542
39 543
40 664
40 665
40 840
40 841
41 893
41 894
42 859
42 860
43 881
43 882
44 618
44 619
45 525
45 526
45 644
45 645
46 220
46 420
47 629
47 630
47 785
47 786
48 547
48 548
48 768
48 769
49 400
49 401
49 522
49 523
49 877
49 878
50 507
50 508
51 488
51 489
52 437
52 438
53 883
53 884
54 671
54 672
55 867
55 868
56 739
56 740
57 390
57 391
57 468
57 469
58 882
58 883
59 394
59 395
59 474
59 475
60 569
60 570
60 776
60 777
61 543
61 544
62 540
62 541
63 416
63 417
63 580
63 581
63 673
63 674
63 852
63 853
64 597
64 598
65 902
65 903
66 667
66 668
66 844
66 845
67 775
67 776
68 730
68 731
69 598
69 599
70 449
70 450
71 592
71 593
71 796
71 797
72 399
72 400
72 554
72 555
72 662
72 663
72 833
72 834
73 517
73 518
73 874
73 875
74 445
74 446
74 599
74 600
75 535
75 536
76 576
76 577
77 747
77 748
78 677
78 678
79 862
79 863
80 708
80 709
81 430
81 431
81 689
81 690
82 711
82 712
83 423
83 424
83 588
83 589
84 872
84 873
85 512
85 513
86 717
86 718
86 823
86 824
87 718
87 719
88 578
88 579
88 672
88 673
89 546
89 547
90 690
90 691
91 904
91 905
92 897
92 898
93 526
93 527
94 780
94 781
95 649
95 650
96 705
96 706
97 861
97 862
98 566
98 567
99 508
99 509
100 738
100 739
101 503
101 504
102 722
102 723
102 828
102 829
103 733
103 734
104 585
104 586
105 895
105 896
106 583
106 584
107 271
107 921
108 532
108 533
108 755
108 756
109 907
109 908
110 633
110 634
111 725
111 726
111 836
111 837
112 553
112 554
113 479
113 480
113 724
113 725
113 900
113 901
114 571
114 572
115 600
115 601
116 905
116 906
117 557
117 558
118 734
118 735
119 402
119 403
119 693
119 694
119 879
119 880
120 748
120 749
120 795
120 796
121 577
121 578
121 779
121 780
122 704
122 705
122 815
122 816
123 529
123 530
124 773
124 774
125 657
125 658
125 827
125 828
126 721
126 722
126 829
126 830
127 478
127 479
128 863
128 864
129 495
129 496
130 427
130 428
131 752
131 753
132 701
132 702
133 516
133 517
134 641
134 642
134 803
134 804
135 750
135 751
136 858
136 859
137 616
137 617
137 847
137 848
138 446
138 447
139 683
139 684
140 891
140 892
141 477
141 478
142 880
142 881
143 745
143 746
144 496
144 497
144 742
144 743
145 181
145 292
145 586
145 678
145 679
145 857
146 491
146 492
146 736
146 737
147 731
147 732
147 848
147 849
148 388
148 389
148 539
148 540
149 386
149 387
149 425
149 426
150 409
150 410
150 575
150 576
151 769
151 770
152 531
152 532
153 456
153 457
154 500
154 501
155 544
155 545
156 418
156 419
156 582
156 583
157 556
157 557
158 916
158 917
159 407
159 408
160 751
160 752
161 414
161 415
161 579
161 580
162 501
162 502
162 627
162 628
163 777
163 778
163 849
163 850
164 685
164 686
164 787
164 788
165 603
165 604
165 811
165 812
166 648
166 649
167 443
167 444
167 699
167 700
168 686
168 687
168 789
168 790
169 521
169 522
170 914
170 915
171 395
171 396
172 766
172 767
173 873
173 874
174 417
174 418
174 451
174 452
175 886
175 887
176 654
176 655
177 444
177 445
178 515
178 516
179 634
179 635
180 537
180 538
181 680
181 681
181 857
182 643
182 644
183 561
183 562
184 624
184 625
185 898
185 899
186 698
186 699
186 804
186 805
187 919
187 920
188 909
188 910
189 679
189 680
190 767
190 768
191 728
191 729
191 838
191 839
192 719
192 720
193 406
193 407
194 502
194 503
195 463
195 464
196 918
196 919
197 432
197 433
198 584
198 585
199 398
199 399
199 518
199 519
200 568
200 569
201 475
201 476
202 459
202 460
203 523
203 524
204 869
204 870
205 870
205 871
206 601
206 602
206 807
206 808
206 887
206 888
207 707
207 708
208 509
208 510
209 486
209 487
210 744
210 745
211 636
211 637
212 759
212 760
212 808
212 809
213 462
213 463
213 604
213 605
214 637
214 638
214 793
214 794
215 458
215 459
216 903
216 904
217 587
217 588
217 782
217 783
218 538
218 539
219 552
219 553
219 770
219 771
220 420
220 453
220 454
220 706
220 707
220 816
220 817
221 915
221 916
222 727
222 728
223 457
223 458
224 640
224 641
225 541
225 542
226 563
226 564
227 401
227 402
227 484
227 485
227 614
227 615
227 839
227 840
228 656
228 657
228 825
228 826
229 497
229 498
229 623
229 624
229 853
229 854
230 700
230 701
230 806
230 807
231 385
231 386
232 892
232 893
233 393
233 394
234 876
234 877
235 635
235 636
235 792
235 793
236 920
236 921
237 391
237 392
237 510
237 511
238 433
238 434
239 723
239 724
239 832
239 833
240 411
240 412
240 530
240 531
241 659
241 660
242 687
242 688
243 590
243 591
243 786
243 787
244 434
244 435
244 691
244 692
245 483
245 484
246 688
246 689
246 790
246 791
247 605
247 606
247 820
247 821
248 440
248 441
249 464
249 465
250 658
250 659
250 826
250 827
251 645
251 646
252 606
252 607
252 821
252 822
253 565
253 566
254 589
254 590
254 784
254 785
255 436
255 437
256 610
256 611
256 824
256 825
257 384
257 385
258 493
258 494
259 865
259 866
260 675
260 676
260 854
260 855
261 771
261 772
262 520
262 521
262 638
262 639
263 868
263 869
264 448
264 449
264 885
264 886
265 917
265 918
266 681
266 682
266 860
266 861
267 476
267 477
268 572
268 573
268 670
268 671
268 850
268 851
269 413
269 414
270 387
270 388
270 461
270 462
270 713
270 714
271 921
272 709
272 710
272 818
272 819
273 612
273 613
273 834
273 835
274 615
274 616
274 841
274 842
275 574
275 575
276 760
276 761
276 812
276 813
277 415
277 416
277 450
277 451
277 703
277 704
278 564
278 565
279 492
279 493
279 740
279 741
280 528
280 529
280 647
280 648
281 631
281 632
282 908
282 909
283 482
283 483
284 639
284 640
285 652
285 653
286 864
286 865
287 472
287 473
288 737
288 738
288 851
288 852
289 403
289 404
289 562
289 563
290 559
290 560
290 901
290 902
291 545
291 546
291 655
291 656
292 301
292 586
292 781
293 764
293 765
294 435
294 436
294 695
294 696
294 801
294 802
295 527
295 528
296 694
296 695
296 800
296 801
297 621
297 622
298 519
298 520
299 419
299 420
300 504
300 505
300 628
300 629
301 781
301 856
301 857
302 596
302 597
302 802
302 803
303 412
303 413
304 666
304 667
305 884
305 885
306 511
306 512
307 424
307 425
307 682
307 683
307 783
307 784
308 498
308 499
309 732
309 733
309 846
309 847
310 714
310 715
311 608
311 609
312 473
312 474
313 442
313 443
313 697
313 698
314 485
314 486
315 524
315 525
315 642
315 643
316 389
316 390
317 405
317 406
317 570
317 571
318 715
318 716
319 761
319 762
319 813
319 814
320 499
320 500
320 626
320 627
321 494
321 495
322 466
322 467
323 753
323 754
323 805
323 806
324 899
324 900
325 743
325 744
326 397
326 398
327 454
327 455
328 625
328 626
329 763
329 764
329 819
329 820
330 465
330 466
331 749
331 750
331 794
331 795
332 506
332 507
333 489
333 490
334 663
334 664
334 837
334 838
335 533
335 534
335 756
335 757
336 549
336 550
337 653
337 654
338 630
338 631
338 788
338 789
339 741
339 742
340 778
340 779
341 480
341 481
342 906
342 907
343 651
343 652
344 754
344 755
345 726
345 727
346 912
346 913
347 481
347 482
347 613
347 614
348 696
348 697
349 758
349 759
349 809
349 810
349 888
349 889
350 762
350 763
350 817
350 818
351 573
351 574
351 669
351 670
352 878
352 879
353 729
353 730
353 842
353 843
354 581
354 582
354 674
354 675
355 548
355 549
356 684
356 685
357 757
357 758
357 810
357 811
358 896
358 897
359 422
359 423
360 772
360 773
360 835
360 836
361 421
361 422
362 469
362 470
362 716
362 717
363 660
363 661
363 831
363 832
364 665
364 666
365 441
365 442
366 408
366 409
367 558
367 559
368 534
368 535
369 871
369 872
370 428
370 429
371 646
371 647
372 632
372 633
372 791
372 792
373 471
373 472
373 609
373 610
374 735
374 736
375 550
375 551
376 467
376 468
377 439
377 440
378 602
378 603
379 774
379 775
379 843
379 844
380 505
380 506
381 622
381 623
382 866
382 867
383 426
383 427
384 385
385 386
386 387
387 388
388 389
389 390
390 391
391 392
392 393
393 394
394 395
395 396
396 397
397 398
398 399
399 400
400 401
401 402
402 403
403 404
404 405
405 406
406 407
407 408
408 409
409 410
410 411
411 412
412 413
413 414
414 415
415 416
416 417
417 418
418 419
419 420
421 422
422 423
423 424
424 425
425 426
426 427
427 428
428 429
429 430
430 431
431 432
432 433
433 434
434 435
435 436
436 437
437 438
438 439
439 440
440 441
441 442
442 443
443 444
444 445
445 446
446 447
447 448
448 449
449 450
450 451
451 452
452 453
453 454
454 455
455 456
456 457
457 458
458 459
459 460
460 461
461 462
462 463
463 464
464 465
465 466
466 467
467 468
468 469
469 470
470 471
471 472
472 473
473 474
474 475
475 476
476 477
477 478
478 479
479 480
480 481
481 482
482 483
483 484
484 485
485 486
486 487
487 488
488 489
489 490
490 491
491 492
492 493
493 494
494 495
495 496
496 497
497 498
498 499
499 500
500 501
501 502
502 503
503 504
504 505
505 506
506 507
507 508
508 509
509 510
510 511
511 512
512 513
513 514
514 515
515 516
516 517
517 518
518 519
519 520
520 521
521 522
522 523
523 524
524 525
525 526
526 527
527 528
528 529
529 530
530 531
531 532
532 533
533 534
534 535
535 536
536 537
537 538
538 539
539 540
540 541
541 542
542 543
543 544
544 545
545 546
546 547
547 548
548 549
549 550
550 551
551 552
552 553
553 554
554 555
555 556
556 557
557 558
558 559
559 560
560 561
561 562
562 563
563 564
564 565
565 566
566 567
567 568
568 569
569 570
570 571
571 572
572 573
573 574
574 575
575 576
576 577
577 578
578 579
579 580
580 581
581 582
582 583
583 584
584 585
585 586
587 588
588 589
589 590
590 591
591 592
592 593
593 594
594 595
595 596
596 597
597 598
598 599
599 600
600 601
601 602
602 603
603 604
604 605
605 606
606 607
607 608
608 609
609 610
610 611
611 612
612 613
613 614
614 615
615 616
616 617
617 618
618 619
619 620
620 621
621 622
622 623
623 624
624 625
625 626
626 627
627 628
628 629
629 630
630 631
631 632
632 633
633 634
634 635
635 636
636 637
637 638
638 639
639 640
640 641
641 642
642 643
643 644
644 645
645 646
646 647
647 648
648 649
649 650
650 651
651 652
652 653
653 654
654 655
655 656
656 657
657 658
658 659
659 660
660 661
661 662
662 663
663 664
664 665
665 666
666 667
667 668
668 669
669 670
670 671
671 672
672 673
673 674
674 675
675 676
676 677
677 678
678 679
679 680
680 681
681 682
682 683
683 684
684 685
685 686
686 687
687 688
688 689
689 690
690 691
691 692
692 693
693 694
694 695
695 696
696 697
697 698
698 699
699 700
700 701
701 702
702 703
703 704
704 705
705 706
706 707
707 708
708 709
709 710
710 711
711 712
712 713
713 714
714 715
715 716
716 717
717 718
718 719
719 720
720 721
721 722
722 723
723 724
724 725
725 726
726 727
727 728
728 729
729 730
730 731
731 732
732 733
733 734
734 735
735 736
736 737
737 738
738 739
739 740
740 741
741 742
742 743
743 744
744 745
745 746
746 747
747 748
748 749
749 750
750 751
751 752
752 753
753 754
754 755
755 756
756 757
757 758
758 759
759 760
760 761
761 762
762 763
763 764
764 765
765 766
766 767
767 768
768 769
769 770
770 771
771 772
772 773
773 774
774 775
775 776
776 777
777 778
778 779
779 780
780 781
782 783
783 784
784 785
785 786
786 787
787 788
788 789
789 790
790 791
791 792
792 793
793 794
794 795
795 796
796 797
797 798
798 799
799 800
800 801
801 802
802 803
803 804
804 805
805 806
806 807
807 808
808 809
809 810
810 811
811 812
812 813
813 814
814 815
815 816
816 817
817 818
818 819
819 820
820 821
821 822
822 823
823 824
824 825
825 826
826 827
827 828
828 829
829 830
830 831
831 832
832 833
833 834
834 835
835 836
836 837
837 838
838 839
839 840
840 841
841 842
842 843
843 844
844 845
845 846
846 847
847 848
848 849
849 850
850 851
851 852
852 853
853 854
854 855
855 856
856 857
858 859
859 860
860 861
861 862
862 863
863 864
864 865
865 866
866 867
867 868
868 869
869 870
870 871
871 872
872 873
873 874
874 875
875 876
876 877
877 878
878 879
879 880
880 881
881 882
882 883
883 884
884 885
885 886
886 887
887 888
888 889
889 890
890 891
891 892
892 893
893 894
894 895
895 896
896 897
897 898
898 899
899 900
900 901
901 902
902 903
903 904
904 905
905 906
906 907
907 908
908 909
909 910
910 911
911 912
912 913
913 914
914 915
915 916
916 917
917 918
918 919
919 920
920 921
